[[74, 66, 65, 64, 56, 57, 55, 46, 47, 38, 48, 39, 40, 41, 32, 33, 31, 29, 37, 28, 30, 21, 22, 19, 20, 11, 10, 2, 3, 12, 13, 4, 14, 5, 6, 7, 8, 9, 18, 17, 16, 15, 23, 24, 25], [26, 27, 35, 36, 44, 34, 42, 43, 45, 54, 53, 52, 51, 50, 60, 49, 58, 59, 61, 62, 63, 72, 71, 81, 80, 70, 69, 67, 68, 77, 78, 79, 88, 89, 90, 99, 98, 97, 96, 87, 86, 95, 94, 93, 92, 91, 82, 83, 73, 84, 85, 76, 75]]